c turning on binary mode checking
c parsing input formula with 259840 variables and 1039934 clauses
c finished parsing, read 24189703 bytes from proof file
c detected empty clause; start verification via backward checking
c 15639 of 1039934 clauses in core                            
c 21440 of 621188 lemmas in core using 136346 resolution steps
c 0 RAT lemmas in core; 1261 redundant literals in core lemmas
s VERIFIED
c verification time: 3.013 seconds
